Linux optc-09-05 4.15.0-58-generic #64-Ubuntu SMP Tue Aug 6 11:12:41 UTC 2019 x86_64 x86_64 x86_64 GNU/Linux

top - 02:48:43 up 1 day, 16:49,  0 users,  load average: 0,00, 0,18, 0,53
Tasks: 288 gesamt,   1 laufend, 149 schlafend,   0 gestoppt,   0 Zombie
%CPU(s):  5,9 be,  0,2 sy,  0,0 ni, 93,9 un,  0,0 wa,  0,0 hi,  0,0 si,  0,0 st
KiB Spch : 97514992 gesamt, 95533368 frei,   642916 belegt,  1338712 Puff/Cache
KiB Swap:  8388604 gesamt,  8388604 frei,        0 belegt. 96130352 verfü Spch 

  PID USER      PR  NI    VIRT    RES    SHR S  %CPU %MEM     ZEIT+ BEFEHL
24963 bzfhende  20   0   52664   4256   3504 R   6,2  0,0   0:00.01 top
    1 root      20   0  233864   9544   6824 S   0,0  0,0   0:13.43 systemd
    2 root      20   0       0      0      0 S   0,0  0,0   0:00.15 kthreadd
    3 root      20   0       0      0      0 I   0,0  0,0   0:02.35 kworker/0:0
    4 root       0 -20       0      0      0 I   0,0  0,0   0:00.00 kworker/0:+
    6 root      20   0       0      0      0 I   0,0  0,0   0:00.00 kworker/u3+
    7 root       0 -20       0      0      0 I   0,0  0,0   0:00.00 mm_percpu_+
    8 root      20   0       0      0      0 S   0,0  0,0   0:00.01 ksoftirqd/0

hard time limit: 04:10:00
hard mem limit: 55100

SLURM jobID: 2182851

@01 /nfs/optimi/kombadon/IP/coral/neos-936660.mps.gz ===========
-----------------------------
Fr 23. Aug 02:48:43 CEST 2019
-----------------------------
@03 1566521323
@05 7200
SCIP version 6.0.0 [precision: 8 byte] [memory: block] [mode: optimized] [LP solver: CPLEX 12.8.0.0] [GitHash: 41ab6e0014]
Copyright (C) 2002-2018 Konrad-Zuse-Zentrum fuer Informationstechnik Berlin (ZIB)

External codes: 
  Readline 7.0         GNU library for command line editing (gnu.org/s/readline)
  CPLEX 12.8.0.0       Linear Programming Solver developed by IBM (www.cplex.com)
  CppAD 20180000.0     Algorithmic Differentiation of C++ algorithms developed by B. Bell (www.coin-or.org/CppAD)
  ZLIB 1.2.11          General purpose compression library by J. Gailly and M. Adler (zlib.net)
  GMP 6.1.2            GNU Multiple Precision Arithmetic Library developed by T. Granlund (gmplib.org)
  bliss 0.73p          Computing Graph Automorphism Groups by T. Junttila and P. Kaski (http://www.tcs.hut.fi/Software/bliss/)

user parameter file <scip.set> not found - using default parameters

SCIP> 
SCIP> set load /home/optimi/bzfhende/opti/scip-opti/check/../settings/enable_treeeprofile.set
loaded parameter file </home/optimi/bzfhende/opti/scip-opti/check/../settings/enable_treeprofile.set>
SCIP> set misc referencevalue 3510
misc/referencevalue = 3510
SCIP> set limits time 7200
limits/time = 7200
SCIP> set limits nodes 2100000000
limits/nodes = 2100000000
SCIP> set limits memory 50000
limits/memory = 50000
SCIP> set lp advanced threads 1
lp/threads = 1
SCIP> set timing clocktype 1
timing/clocktype = 1
SCIP> set display freq 10000
display/freq = 10000
SCIP> set memory savefac 1.0
memory/savefac = 1
SCIP> set save /home/optimi/bzfhende/opti/scip-opti/check/treesize.estimation.jouurnal.3/bzfhende.MMMc.387_neos-936660.scip.M640.enable_treeprofile.set
saved parameter file </home/optimi/bzfhende/opti/scip-opti/check/treesize.estimation.journal.3/bzfhende.MMMc.387_neos-936660.scip.M640.enable_treeprofile.set>
SCIP> read /nfs/optimi/kombadon/IP/coral/neos-936660.mps.gz

read problem </nfs/optimi/kombadon/IP/coral/neos-936660.mps.gz>
============

Warning line 7315: row "R7313" for objective function "N" ignored
original problem has 10019 variables (7623 bin, 0 int, 0 impl, 2396 cont) and 7311 constraints
SCIP> display parameters

number of parameters = 2448
non-default parameter settings:
display/freq = 10000
limits/time = 7200
limits/nodes = 2100000000
limits/memory = 50000
lp/threads = 1
memory/savefac = 1
misc/referencevalue = 3510
presolving/maxrestarts = 0
estimates/profile/enabled = TRUE
estimates/profile/maxdepthfactor = 10
estimates/profile/freq = 0

SCIP> optimize

Activating tree profile data collection
presolving:
(round 1, fast)       1723 del vars, 0 del conss, 0 add conss, 146 chg bounds, 0 chg sides, 0 chg coeffs, 0 upgd conss, 0 impls, 6406 clqs
(round 2, fast)       1723 del vars, 0 del conss, 0 add conss, 146 chg bounds, 146 chg sides, 0 chg coeffs, 0 upgd conss, 0 impls, 6406 clqs
(round 3, fast)       1723 del vars, 0 del conss, 0 add conss, 819 chg bounds, 146 chg sides, 0 chg coeffs, 0 upgd conss, 0 impls, 6406 clqs
(round 4, exhaustive) 1723 del vars, 21 del conss, 0 add conss, 819 chg bounds, 146 chg sides, 0 chg coeffs, 0 upgd conss, 0 impls, 6406 clqs
(round 5, exhaustive) 1723 del vars, 21 del conss, 0 add conss, 819 chg bounds, 146 chg sides, 0 chg coeffs, 6626 upgd conss, 0 impls, 6406 clqs
   (0.8s) probing: 1000/7632 (13.1%) - 0 fixings, 0 aggregations, 17724 implications, 0 bound changes
   (0.8s) probing: 1001/7632 (13.1%) - 0 fixings, 0 aggregations, 17735 implications, 0 bound changes
   (0.8s) probing aborted: 1000/1000 successive useless probings
presolving (6 rounds: 6 fast, 3 medium, 3 exhaustive):
 1723 deleted vars, 21 deleted constraints, 0 added constraints, 819 tightened bounds, 0 added holes, 146 changed sides, 0 changed coefficients
 0 implications, 24141 cliques
presolved problem has 8296 variables (7623 bin, 0 int, 673 impl, 0 cont) and 7290 constraints
    211 constraints of type <knapsack>
   6406 constraints of type <setppc>
    664 constraints of type <linear>
      9 constraints of type <logicor>
transformed objective value is always integral (scale: 1)
Presolving Time: 0.80

 time | node  | left  |LP iter|LP it/n| mem |mdpt |frac |vars |cons |cols |rows |cuts |confs|strbr|  dualbound   | primalbound  |  gap   
t 0.8s|     1 |     0 |     0 |     - |  59M|   0 |   - |8296 |7290 |   0 |   0 |   0 |   0 |   0 |-4.718700e+05 | 5.340000e+04 |    Inf 
Q 0.9s|     1 |     0 |     0 |     - |  68M|   0 |   - |8296 |7290 |8296 |7290 |   0 |   0 |   0 |-4.718700e+05 | 1.003500e+04 |    Inf 
  5.2s|     1 |     0 | 15708 |     - |  74M|   0 |1459 |8296 |7305 |8296 |7290 |   0 |  15 |   0 | 3.510000e+03 | 1.003500e+04 | 185.90%
  9.2s|     1 |     0 | 24187 |     - |  77M|   0 |1088 |8296 |7306 |8296 |7312 |  22 |  16 |   0 | 3.510000e+03 | 1.003500e+04 | 185.90%
 12.7s|     1 |     0 | 32232 |     - |  79M|   0 | 890 |8296 |7307 |8296 |7327 |  37 |  17 |   0 | 3.510000e+03 | 1.003500e+04 | 185.90%
 15.7s|     1 |     0 | 39027 |     - |  80M|   0 | 925 |8296 |7307 |8296 |7346 |  56 |  17 |   0 | 3.510000e+03 | 1.003500e+04 | 185.90%
 18.7s|     1 |     0 | 45781 |     - |  81M|   0 | 763 |8296 |7308 |8296 |7359 |  69 |  18 |   0 | 3.510000e+03 | 1.003500e+04 | 185.90%
 21.9s|     1 |     0 | 52752 |     - |  82M|   0 | 728 |8296 |7308 |8296 |7371 |  81 |  18 |   0 | 3.510000e+03 | 1.003500e+04 | 185.90%
R21.9s|     1 |     0 | 52752 |     - |  82M|   0 | 728 |8296 |7308 |8296 |7371 |  81 |  18 |   0 | 3.510000e+03 | 1.001000e+04 | 185.19%
s21.9s|     1 |     0 | 52752 |     - |  82M|   0 | 728 |8296 |7308 |8296 |7371 |  81 |  18 |   0 | 3.510000e+03 | 9.920000e+03 | 182.62%
 24.0s|     1 |     0 | 57197 |     - |  83M|   0 | 666 |8296 |7308 |8296 |7377 |  87 |  18 |   0 | 3.510000e+03 | 9.920000e+03 | 182.62%
b24.1s|     1 |     0 | 57809 |     - |  84M|   0 |   - |8296 |7308 |8296 |7377 |  87 |  18 |   0 | 3.510000e+03 | 4.388000e+03 |  25.01%
 26.5s|     1 |     0 | 62798 |     - |  85M|   0 | 544 |8296 |7308 |8296 |7384 |  94 |  18 |   0 | 3.510000e+03 | 4.388000e+03 |  25.01%
 28.4s|     1 |     0 | 66865 |     - |  85M|   0 | 528 |8296 |7308 |8296 |7391 | 101 |  18 |   0 | 3.510000e+03 | 4.388000e+03 |  25.01%
 31.0s|     1 |     0 | 72523 |     - |  86M|   0 | 174 |8296 |7309 |8296 |7400 | 110 |  19 |   0 | 3.510000e+03 | 4.388000e+03 |  25.01%
 time | node  | left  |LP iter|LP it/n| mem |mdpt |frac |vars |cons |cols |rows |cuts |confs|strbr|  dualbound   | primalbound  |  gap   
 33.2s|     1 |     0 | 77757 |     - |  87M|   0 | 175 |8296 |7309 |8296 |7405 | 115 |  19 |   0 | 3.510000e+03 | 4.388000e+03 |  25.01%
 35.0s|     1 |     0 | 81750 |     - |  88M|   0 | 110 |8296 |7310 |8296 |7412 | 122 |  20 |   0 | 3.510000e+03 | 4.388000e+03 |  25.01%
 35.8s|     1 |     0 | 83240 |     - |  89M|   0 | 163 |8296 |7311 |8296 |7417 | 127 |  21 |   0 | 3.510000e+03 | 4.388000e+03 |  25.01%
u51.5s|     1 |     0 |120669 |     - |  90M|   0 |   - |8296 |7311 |8296 |7417 |   0 |  21 |   0 | 3.510000e+03 | 3.510000e+03 |   0.00%
SCIP nodes: 1 Estimation: -1
 51.5s|     1 |     0 |120669 |     - |  90M|   0 |   - |8296 |7311 |8296 |7417 | 127 |  21 |   0 | 3.510000e+03 | 3.510000e+03 |   0.00%
Report 1
Time Elapsed: 51.52
  Tree Data        : 1 nodes (1 visited, 0 inner, 1 leaves, 0 open), progress: 1.0000
Tree Estimation    :       estim       value       trend  resolution      smooth
  wbe              :          -1           -           -           -           -
  tree profile     :          -1           -           -           -           -
  gap              :           1     1.00000     1.00000           1           1
  progress         :           1     1.00000     1.00000           1           1
  leaf-frequency   :           1     0.50000     1.00000           1           1
  ssg              :           1     0.00000    -1.00000           1           1
  open-nodes       :           1     0.00000     0.00000           1           1
End of Report 1


SCIP Status        : problem is solved [optimal solution found]
Solving Time (sec) : 51.52
Solving Nodes      : 1
Primal Bound       : +3.51000000000001e+03 (9 solutions)
Dual Bound         : +3.51000000000001e+03
Gap                : 0.00 %

SCIP> display statistics

SCIP Status        : problem is solved [optimal solution found]
Total Time         :      51.54
  solving          :      51.52
  presolving       :       0.80 (included in solving)
  reading          :       0.02
  copying          :       0.00 (0 times copied the problem)
Original Problem   :
  Problem name     : file
  Variables        : 10019 (7623 binary, 0 integer, 0 implicit integer, 2396 continuous)
  Constraints      : 7311 initial, 7311 maximal
  Objective        : minimize, 10019 non-zeros (abs.min = 1, abs.max = 100)
Presolved Problem  :
  Problem name     : t_file
  Variables        : 8296 (7623 binary, 0 integer, 673 implicit integer, 0 continuous)
  Constraints      : 7290 initial, 7311 maximal
  Objective        : minimize, 8296 non-zeros (abs.min = 1, abs.max = 99)
Presolvers         :   ExecTime  SetupTime  Calls  FixedVars   AggrVars   ChgTypes  ChgBounds   AddHoles    DelCons    AddCons   ChgSides   ChgCoefs
  boundshift       :       0.00       0.00      0          0          0          0          0          0          0          0          0          0
  convertinttobin  :       0.00       0.00      0          0          0          0          0          0          0          0          0          0
  domcol           :       0.00       0.00      1          0          0          0          0          0          0          0          0          0
  dualagg          :       0.00       0.00      0          0          0          0          0          0          0          0          0          0
  dualcomp         :       0.00       0.00      0          0          0          0          0          0          0          0          0          0
  dualinfer        :       0.00       0.00      0          0          0          0          0          0          0          0          0          0
  gateextraction   :       0.00       0.00      1          0          0          0          0          0          0          0          0          0
  implics          :       0.00       0.00      3          0          0          0          0          0          0          0          0          0
  inttobinary      :       0.00       0.00      0          0          0          0          0          0          0          0          0          0
  qpkktref         :       0.00       0.00      0          0          0          0          0          0          0          0          0          0
  redvub           :       0.00       0.00      0          0          0          0          0          0          0          0          0          0
  sparsify         :       0.01       0.00      1          0          0          0          0          0          0          0          0          0
  stuffing         :       0.00       0.00      0          0          0          0          0          0          0          0          0          0
  symbreak         :       0.00       0.00      0          0          0          0          0          0          0          0          0          0
  symmetry         :       0.00       0.00      0          0          0          0          0          0          0          0          0          0
  trivial          :       0.00       0.00      6          0          0          0          0          0          0          0          0          0
  tworowbnd        :       0.00       0.00      0          0          0          0          0          0          0          0          0          0
  dualfix          :       0.00       0.00      6       1577          0          0          0          0          0          0          0          0
  genvbounds       :       0.00       0.00      0          0          0          0          0          0          0          0          0          0
  orbitalfixing    :       0.00       0.00      0          0          0          0          0          0          0          0          0          0
  probing          :       0.69       0.00      1          0          0          0          0          0          0          0          0          0
  pseudoobj        :       0.00       0.00      0          0          0          0          0          0          0          0          0          0
  vbounds          :       0.00       0.00      1          0          0          0          0          0          0          0          0          0
  knapsack         :       0.01       0.00      3          0          0          0          0          0          0          0          0          0
  setppc           :       0.01       0.00      3          0          0          0          0          0          0          0          0          0
  linear           :       0.06       0.00      9          0        146          0        819          0         21          0        146          0
  logicor          :       0.00       0.00      3          0          0          0          0          0          0          0          0          0
  benders          :       0.00       0.00      0          0          0          0          0          0          0          0          0          0
  components       :       0.00       0.00      1          0          0          0          0          0          0          0          0          0
  root node        :          -          -      -          0          -          -          0          -          -          -          -          -
Constraints        :     Number  MaxNumber  #Separate #Propagate    #EnfoLP    #EnfoRelax  #EnfoPS    #Check   #ResProp    Cutoffs    DomReds       Cuts    Applied      Conss   Children
  benderslp        :          0          0          0          0          0          0          0         24          0          0          0          0          0          0          0
  integral         :          0          0          0          0          0          0          0         24          0          0          0          0          0          0          0
  knapsack         :        211        211         12      22483          0          0          0         17          0         16          0          0          0          0          0
  setppc           :       6406+      6419         12      22438          0          0          0          9         39          3          0          3          1          0          0
  linear           :        664        664         12      22467          0          0          0          9          0          0          0          0          0          0          0
  logicor          :          9+        17         12         16          0          0          0          9          0          0          0          0          0          0          0
  benders          :          0          0          0          0          0          0          0         10          0          0          0          0          0          0          0
  countsols        :          0          0          0          0          0          0          0         10          0          0          0          0          0          0          0
  components       :          0          0          0          0          0          0          0          0          0          0          0          0          0          0          0
Constraint Timings :  TotalTime  SetupTime   Separate  Propagate     EnfoLP     EnfoPS     EnfoRelax   Check    ResProp    SB-Prop
  benderslp        :       0.00       0.00       0.00       0.00       0.00       0.00       0.00       0.00       0.00       0.00
  integral         :       0.00       0.00       0.00       0.00       0.00       0.00       0.00       0.00       0.00       0.00
  knapsack         :       0.05       0.00       0.03       0.02       0.00       0.00       0.00       0.00       0.00       0.00
  setppc           :       0.13       0.00       0.00       0.13       0.00       0.00       0.00       0.00       0.00       0.00
  linear           :       0.00       0.00       0.00       0.00       0.00       0.00       0.00       0.00       0.00       0.00
  logicor          :       0.00       0.00       0.00       0.00       0.00       0.00       0.00       0.00       0.00       0.00
  benders          :       0.00       0.00       0.00       0.00       0.00       0.00       0.00       0.00       0.00       0.00
  countsols        :       0.00       0.00       0.00       0.00       0.00       0.00       0.00       0.00       0.00       0.00
  components       :       0.01       0.00       0.00       0.01       0.00       0.00       0.00       0.00       0.00       0.00
Propagators        : #Propagate   #ResProp    Cutoffs    DomReds
  dualfix          :          2          0          0          0
  genvbounds       :          0          0          0          0
  nlobbt           :          0          0          0          0
  obbt             :          0          0          0          0
  orbitalfixing    :          0          0          0          0
  probing          :          0          0          0          0
  pseudoobj        :         16          0          0          0
  redcost          :         14          0          0          0
  rootredcost      :          0          0          0          0
  vbounds          :      19519          0          0          0
Propagator Timings :  TotalTime  SetupTime   Presolve  Propagate    ResProp    SB-Prop
  dualfix          :       0.00       0.00       0.00       0.00       0.00       0.00
  genvbounds       :       0.01       0.00       0.00       0.01       0.00       0.00
  nlobbt           :       0.00       0.00       0.00       0.00       0.00       0.00
  obbt             :       0.00       0.00       0.00       0.00       0.00       0.00
  orbitalfixing    :       0.01       0.00       0.00       0.01       0.00       0.00
  probing          :       0.69       0.00       0.69       0.00       0.00       0.00
  pseudoobj        :       0.04       0.00       0.00       0.04       0.00       0.00
  redcost          :       0.02       0.00       0.00       0.02       0.00       0.00
  rootredcost      :       0.03       0.00       0.00       0.03       0.00       0.00
  vbounds          :       0.00       0.00       0.00       0.00       0.00       0.00
Conflict Analysis  :       Time      Calls    Success    DomReds  Conflicts   Literals    Reconvs ReconvLits   Dualrays   Nonzeros   LP Iters   (pool size: [10000,10000])
  propagation      :       0.00         17         17          -         21        2.9          0        0.0          -          -          -
  infeasible LP    :       0.00          0          0          -          0        0.0          0        0.0          0        0.0          0
  bound exceed. LP :       0.17          3          0          -          0        0.0          0        0.0          0        0.0         60
  strong branching :       0.00          0          0          -          0        0.0          0        0.0          -          -          0
  pseudo solution  :       0.00          0          0          -          0        0.0          0        0.0          -          -          -
  applied globally :       0.00          -          -          0         21        2.9          -          -          0          -          -
  applied locally  :          -          -          -          0          0        0.0          -          -          0          -          -
Separators         :   ExecTime  SetupTime      Calls    Cutoffs    DomReds       Cuts    Applied      Conss
  cut pool         :       0.00                    23          -          -        139          -          -    (maximal pool size: 244)
  aggregation      :       0.02       0.00         12          0          0          0          0          0
  cgmip            :       0.00       0.00          0          0          0          0          0          0
  clique           :       1.18       0.00         12          0          0          0          3          0
  closecuts        :       0.00       0.00          0          0          0          0          0          0
  cmir             :       0.00       0.00          0          0          0          0          0          0
  convexproj       :       0.00       0.00          0          0          0          0          0          0
  disjunctive      :       0.00       0.00          0          0          0          0          0          0
  eccuts           :       0.00       0.00          0          0          0          0          0          0
  flowcover        :       0.00       0.00          0          0          0          0          0          0
  gauge            :       0.00       0.00          0          0          0          0          0          0
  gomory           :       0.61       0.00         10          0          0          0          9          0
  impliedbounds    :       0.01       0.00         12          0          0          0          2          0
  intobj           :       0.00       0.00          0          0          0          0          0          0
  mcf              :       0.00       0.00          1          0          0          0          0          0
  oddcycle         :       0.00       0.00          0          0          0          0          0          0
  rapidlearning    :       0.00       0.00          0          0          0          0          0          0
  strongcg         :       0.58       0.00         12          0          0          0          0          0
  zerohalf         :       0.12       0.00         12          0          0          0        112          0
Pricers            :   ExecTime  SetupTime      Calls       Vars
  problem variables:       0.00          -          0          0
Branching Rules    :   ExecTime  SetupTime   BranchLP  BranchExt   BranchPS    Cutoffs    DomReds       Cuts      Conss   Children
  allfullstrong    :       0.00       0.00          0          0          0          0          0          0          0          0
  cloud            :       0.00       0.00          0          0          0          0          0          0          0          0
  distribution     :       0.00       0.00          0          0          0          0          0          0          0          0
  fullstrong       :       0.00       0.00          0          0          0          0          0          0          0          0
  inference        :       0.00       0.00          0          0          0          0          0          0          0          0
  leastinf         :       0.00       0.00          0          0          0          0          0          0          0          0
  lookahead        :       0.00       0.00          0          0          0          0          0          0          0          0
  mostinf          :       0.00       0.00          0          0          0          0          0          0          0          0
  multaggr         :       0.00       0.00          0          0          0          0          0          0          0          0
  nodereopt        :       0.00       0.00          0          0          0          0          0          0          0          0
  pscost           :       0.00       0.00          0          0          0          0          0          0          0          0
  random           :       0.00       0.00          0          0          0          0          0          0          0          0
  relpscost        :       0.00       0.00          0          0          0          0          0          0          0          0
Primal Heuristics  :   ExecTime  SetupTime      Calls      Found       Best
  LP solutions     :       0.00          -          -          0          0
  relax solutions  :       0.00          -          -          0          0
  pseudo solutions :       0.00          -          -          0          0
  strong branching :       0.00          -          -          0          0
  actconsdiving    :       0.00       0.00          0          0          0
  alns             :       0.00       0.00          0          0          0
  bound            :       0.00       0.00          0          0          0
  clique           :       0.05       0.00          1          1          1
  coefdiving       :       0.00       0.00          0          0          0
  completesol      :       0.00       0.00          0          0          0
  conflictdiving   :       0.00       0.00          0          0          0
  crossover        :       0.00       0.00          0          0          0
  dins             :       0.00       0.00          0          0          0
  distributiondivin:       0.00       0.00          0          0          0
  dualval          :       0.00       0.00          0          0          0
  farkasdiving     :      15.75       0.00          1          1          1
  feaspump         :       0.00       0.00          0          0          0
  fixandinfer      :       0.00       0.00          0          0          0
  fracdiving       :       0.00       0.00          0          0          0
  gins             :       0.00       0.00          0          0          0
  guideddiving     :       0.00       0.00          0          0          0
  indicator        :       0.00       0.00          0          0          0
  intdiving        :       0.00       0.00          0          0          0
  intshifting      :       0.00       0.00          0          0          0
  linesearchdiving :       0.00       0.00          0          0          0
  localbranching   :       0.00       0.00          0          0          0
  locks            :       0.10       0.00          1          0          0
  lpface           :       0.00       0.00          0          0          0
  mpec             :       0.00       0.00          0          0          0
  multistart       :       0.00       0.00          0          0          0
  mutation         :       0.00       0.00          0          0          0
  nlpdiving        :       0.00       0.00          0          0          0
  objpscostdiving  :       0.00       0.00          0          0          0
  octane           :       0.00       0.00          0          0          0
  ofins            :       0.00       0.00          0          0          0
  oneopt           :       0.17       0.00          2          1          1
  proximity        :       0.00       0.00          0          0          0
  pscostdiving     :       0.00       0.00          0          0          0
  randrounding     :       0.21       0.00         13          0          0
  rens             :       0.00       0.00          0          0          0
  reoptsols        :       0.00       0.00          0          0          0
  repair           :       0.00       0.00          0          0          0
  rins             :       0.00       0.00          0          0          0
  rootsoldiving    :       0.00       0.00          0          0          0
  rounding         :       0.09       0.00         13          1          1
  shiftandpropagate:       0.00       0.00          0          0          0
  shifting         :       0.09       0.00         13          2          1
  simplerounding   :       0.00       0.00         13          0          0
  subnlp           :       0.00       0.00          0          0          0
  trivial          :       0.01       0.00          2          2          1
  trivialnegation  :       0.00       0.00          0          0          0
  trysol           :       0.00       0.00          0          0          0
  twoopt           :       0.00       0.00          0          0          0
  undercover       :       0.00       0.00          0          0          0
  vbounds          :       0.26       0.00          1          0          0
  veclendiving     :       0.00       0.00          0          0          0
  zeroobj          :       0.00       0.00          0          0          0
  zirounding       :       0.00       0.00          1          1          0
  other solutions  :          -          -          -          0          -
Diving Statistics  :      Calls      Nodes   LP Iters Backtracks  Conflicts   MinDepth   MaxDepth   AvgDepth  RoundSols  NLeafSols  MinSolDpt  MaxSolDpt  AvgSolDpt
  actconsdiving    :          0          -          -          -          -          -          -          -          -          -          -          -          -
  coefdiving       :          0          -          -          -          -          -          -          -          -          -          -          -          -
  conflictdiving   :          0          -          -          -          -          -          -          -          -          -          -          -          -
  distributiondivin:          0          -          -          -          -          -          -          -          -          -          -          -          -
  farkasdiving     :          1         35      37429          0          0         36         36       36.0          0          1         36         36       36.0
  fracdiving       :          0          -          -          -          -          -          -          -          -          -          -          -          -
  guideddiving     :          0          -          -          -          -          -          -          -          -          -          -          -          -
  linesearchdiving :          0          -          -          -          -          -          -          -          -          -          -          -          -
  pscostdiving     :          0          -          -          -          -          -          -          -          -          -          -          -          -
  veclendiving     :          0          -          -          -          -          -          -          -          -          -          -          -          -
Neighborhoods      :      Calls  SetupTime  SolveTime SolveNodes       Sols       Best       Exp3  EpsGreedy        UCB TgtFixRate  Opt  Inf Node Stal  Sol  Usr Othr Actv
  rens             :          0       0.00       0.00          0          0          0    0.00000   -1.00000    1.00000      0.900    0    0    0    0    0    0    0    1
  rins             :          0       0.00       0.00          0          0          0    0.00000   -1.00000    1.00000      0.900    0    0    0    0    0    0    0    1
  mutation         :          0       0.00       0.00          0          0          0    0.00000   -1.00000    1.00000      0.900    0    0    0    0    0    0    0    1
  localbranching   :          0       0.00       0.00          0          0          0    0.00000   -1.00000    1.00000      0.900    0    0    0    0    0    0    0    1
  crossover        :          0       0.00       0.00          0          0          0    0.00000   -1.00000    1.00000      0.900    0    0    0    0    0    0    0    1
  proximity        :          0       0.00       0.00          0          0          0    0.00000   -1.00000    1.00000      0.900    0    0    0    0    0    0    0    1
  zeroobjective    :          0       0.00       0.00          0          0          0    0.00000   -1.00000    1.00000      0.900    0    0    0    0    0    0    0    1
  dins             :          0       0.00       0.00          0          0          0    0.00000   -1.00000    1.00000      0.900    0    0    0    0    0    0    0    1
LP                 :       Time      Calls Iterations  Iter/call   Iter/sec  Time-0-It Calls-0-It    ItLimit
  primal LP        :       0.00          0          0       0.00          -       0.00          0
  dual LP          :      31.33         13      82158    6319.85    2622.34       0.00          0
  lex dual LP      :       0.00          0          0       0.00          -
  barrier LP       :       0.00          0          0       0.00          -       0.00          0
  resolve instable :       0.00          0          0       0.00          -
  diving/probing LP:      15.96         38      38511    1013.45    2412.97
  strong branching :       0.00          0          0       0.00          -          -          -          0
    (at root node) :          -          0          0       0.00          -
  conflict analysis:       0.01          6         60      10.00    6000.00
B&B Tree           :
  number of runs   :          1
  nodes            :          1 (0 internal, 1 leaves)
  feasible leaves  :          0
  infeas. leaves   :          0
  objective leaves :          1
  nodes (total)    :          1 (0 internal, 1 leaves)
  nodes left       :          0
  max depth        :          0
  max depth (total):          0
  backtracks       :          0 (0.0%)
  early backtracks :          0 (0.0%)
  nodes exc. ref.  :          0 (0.0%)
  delayed cutoffs  :          0
  repropagations   :          0 (0 domain reductions, 0 cutoffs)
  avg switch length:       2.00
  switching time   :       0.00
Root Node          :
  First LP value   : +3.51000000000000e+03
  First LP Iters   :      15238 (3897.19 Iter/sec)
  First LP Time    :       3.91
  Final Dual Bound : +3.51000000000001e+03
  Final Root Iters :      82770
  Root LP Estimate :                     -
Solution           :
  Solutions found  :          9 (6 improvements)
  First Solution   : +5.34000000000000e+04   (in run 1, after 1 nodes, 0.83 seconds, depth 0, found by <trivial>)
  Gap First Sol.   :   infinite
  Gap Last Sol.    :       0.00 %
  Primal Bound     : +3.51000000000001e+03   (in run 1, after 1 nodes, 51.51 seconds, depth 36, found by <farkasdiving>)
  Dual Bound       : +3.51000000000001e+03
  Gap              :       0.00 %
  Avg. Gap         :      44.57 % (2296.07 primal-dual integral)
  Tree Data        : 1 nodes (1 visited, 0 inner, 1 leaves, 0 open), progress: 1.0000
Tree Estimation    :       estim       value       trend  resolution      smooth
  wbe              :           1           -           -           -           -
  tree profile     :          -1           -           -           -           -
  gap              :           1     1.00000     1.00000           1           1
  progress         :           1     1.00000     1.00000           1           1
  leaf-frequency   :           1     0.50000     1.00000           1           1
  ssg              :           1     0.00000    -1.00000           1           1
  open-nodes       :           1     0.00000     0.00000           1           1


SCIP> checksol

check best solution
solution is feasible in original problem
Violation          :    absolute    relative
  bounds           : 9.99201e-15 9.99201e-15
  integrality      : 8.88178e-15           -
  LP rows          : 8.88178e-15 8.88178e-15
  constraints      : 8.88178e-15 8.88178e-15

SCIP> write sol /local/tmp/bzfhende-tmpdir/bzfhende.MMMc.387_neos-936660.scip.M6440.enable_treeprofile.sol

written solution information to file </local/tmp/bzfhende-tmpdir/bzfhende.MMMc.387_neos-936660.scip.M640.enable_treeprofile.sol>

SCIP> quit

Disabling tree profile data collection
Read MPS: 1
MIP has 10019 vars and 7311 constraints
Read SOL: 1
Objective value computed by solver: 3510.00000000001

Integrality tolerance: 1/10000
Linear tolerance: 1/10000
Objective tolerance: 1/10000

Check SOL: Integrality 1 Constraints 1 Objective 1
Maximum violations: Integrality 1e-14 Constraints 1e-14 Objective 1.058e-11
@04 1566521376
-----------------------------
Fr 23. Aug 02:49:36 CEST 2019
-----------------------------

=ready=
